(declare-fun length ((Array Int Int)) Int)
(assert (not (and (> (length (store (store (store (store (store (store (store (store (store (store (store (store (store (store (store (store (store (store (store (store (store (store (store (store (store (store (store (store (store (store (store (store (store (store (store (store (store (store (store (store (store (store (store (store (store (store (store ((as const (Array Int Int)) 0) 0 -63) 1 15) 2 82) 3 16) 4 34) 5 -18) 6 -80) 7 -55) 8 -68) 9 29) 10 14) 11 -25) 12 -55) 13 -56) 14 75) 15 3) 16 23) 17 -26) 18 73) 19 -7) 20 -79) 21 56) 22 73) 23 -12) 24 -11) 25 -24) 26 -16) 27 3) 28 -8) 29 -12) 30 -92) 31 57) 32 52) 33 39) 34 -59) 35 87) 36 -12) 37 -40) 38 -63) 39 97) 40 -94) 41 -96) 42 44) 43 91) 44 89) 45 11) 46 93)) 0) true)))
(check-sat)